peakDumbCharging = 11100; 
Machine = anon_enum(16); 
machineSpeed = [3700,3700,3700,3700,3700,3700,3700,3700,3700,3700,3700,3700,3700,3700,3700,3700]; 
machineLoad = [3700,3700,3700,3700,3700,3700,3700,3700,3700,3700,3700,3700,3700,3700,3700,3700]; 
Car = anon_enum(14); 
demandCar = [4000,16281,28400,19240,6440,6200,12400,18840,2480,7240,12120,13800,14760,7480]; 
arrivalCar = [67,60,53,51,50,48,45,43,42,40,35,33,32,30]; 
departureCar = [73,68,63,58,53,51,57,52,44,47,42,42,40,34]; 
